p cnf 2081
-25 -655
-26 -658
-27 -661
-28 -664
-29 -667
-30 -670
-31 -673
-32 -676
-33 -679
-34 -682
-35 -685
-36 -688
-37 -691
-38 -694
-39 -697
-40 -700
-41 -703
-42 -706
-43 -709
-44 -712
-45 -715
-46 -718
-47 -721
-48 -724
-49 725
-50 726
-51 727
-52 728
-53 729
-54 730
-55 731
-56 732
-57 733
-58 734
-59 735
-60 736
-61 737
-62 738
-63 739
-64 740
-65 741
-66 742
-67 743
-68 744
-69 745
-70 746
-71 -26
-71 -27
26 27 71
-72 -28
-72 -29
28 29 72
-73 -30
-73 -31
30 31 73
-74 -32
-74 -33
32 33 74
-75 -34
-75 -35
34 35 75
-76 -36
-76 -37
36 37 76
-77 -38
-77 -39
38 39 77
-78 -40
-78 -41
40 41 78
-79 -42
-79 -43
42 43 79
-80 -44
-80 -45
44 45 80
-81 -46
-81 -47
46 47 81
-82 -48
-82 -49
48 49 82
-83 -50
-83 -51
50 51 83
-84 -52
-84 -53
52 53 84
-85 -54
-85 -55
54 55 85
-86 -56
-86 -57
56 57 86
-87 -58
-87 -59
58 59 87
-88 -60
-88 -61
60 61 88
-89 -62
-89 -63
62 63 89
-90 -64
-90 -65
64 65 90
-91 -66
-91 -67
66 67 91
-92 -68
-92 -69
68 69 92
-93 71
-93 72
-71 -72 93
-94 73
-94 74
-73 -74 94
-95 75
-95 76
-75 -76 95
-96 77
-96 78
-77 -78 96
-97 79
-97 80
-79 -80 97
-98 81
-98 82
-81 -82 98
-99 83
-99 84
-83 -84 99
-100 85
-100 86
-85 -86 100
-101 87
-101 88
-87 -88 101
-102 89
-102 90
-89 -90 102
-103 91
-103 92
-91 -92 103
-104 93
-104 94
-93 -94 104
-105 95
-105 96
-95 -96 105
-106 97
-106 98
-97 -98 106
-107 99
-107 100
-99 -100 107
-108 101
-108 102
-101 -102 108
-109 -70
-109 103
70 -103 109
-110 104
-110 105
-104 -105 110
-111 106
-111 107
-106 -107 111
-112 108
-112 109
-108 -109 112
-113 110
-113 111
-110 -111 113
-114 112
-114 113
-112 -113 114
-115 -25
-115 26
25 -26 115
-116 25
-116 -26
-25 26 116
-117 -115
-117 -116
115 116 117
-118 25
-118 26
-25 -26 118
-119 -25
-119 -117
25 117 119
-120 25
-120 117
-25 -117 120
-121 -119
-121 -120
119 120 121
-122 25
-122 -117
-25 117 122
-123 -118
-123 -122
118 122 123
-124 -26
-124 27
26 -27 124
-125 26
-125 -27
-26 27 125
-126 -124
-126 -125
124 125 126
-127 26
-127 27
-26 -27 127
-128 123
-128 -126
-123 126 128
-129 -123
-129 126
123 -126 129
-130 -128
-130 -129
128 129 130
-131 -123
-131 -126
123 126 131
-132 -127
-132 -131
127 131 132
-133 -27
-133 28
27 -28 133
-134 27
-134 -28
-27 28 134
-135 -133
-135 -134
133 134 135
-136 27
-136 28
-27 -28 136
-137 132
-137 -135
-132 135 137
-138 -132
-138 135
132 -135 138
-139 -137
-139 -138
137 138 139
-140 -132
-140 -135
132 135 140
-141 -136
-141 -140
136 140 141
-142 -28
-142 29
28 -29 142
-143 28
-143 -29
-28 29 143
-144 -142
-144 -143
142 143 144
-145 28
-145 29
-28 -29 145
-146 141
-146 -144
-141 144 146
-147 -141
-147 144
141 -144 147
-148 -146
-148 -147
146 147 148
-149 -141
-149 -144
141 144 149
-150 -145
-150 -149
145 149 150
-151 -29
-151 30
29 -30 151
-152 29
-152 -30
-29 30 152
-153 -151
-153 -152
151 152 153
-154 29
-154 30
-29 -30 154
-155 150
-155 -153
-150 153 155
-156 -150
-156 153
150 -153 156
-157 -155
-157 -156
155 156 157
-158 -150
-158 -153
150 153 158
-159 -154
-159 -158
154 158 159
-160 -30
-160 31
30 -31 160
-161 30
-161 -31
-30 31 161
-162 -160
-162 -161
160 161 162
-163 30
-163 31
-30 -31 163
-164 159
-164 -162
-159 162 164
-165 -159
-165 162
159 -162 165
-166 -164
-166 -165
164 165 166
-167 -159
-167 -162
159 162 167
-168 -163
-168 -167
163 167 168
-169 -31
-169 32
31 -32 169
-170 31
-170 -32
-31 32 170
-171 -169
-171 -170
169 170 171
-172 31
-172 32
-31 -32 172
-173 168
-173 -171
-168 171 173
-174 -168
-174 171
168 -171 174
-175 -173
-175 -174
173 174 175
-176 -168
-176 -171
168 171 176
-177 -172
-177 -176
172 176 177
-178 -32
-178 33
32 -33 178
-179 32
-179 -33
-32 33 179
-180 -178
-180 -179
178 179 180
-181 32
-181 33
-32 -33 181
-182 177
-182 -180
-177 180 182
-183 -177
-183 180
177 -180 183
-184 -182
-184 -183
182 183 184
-185 -177
-185 -180
177 180 185
-186 -181
-186 -185
181 185 186
-187 -33
-187 34
33 -34 187
-188 33
-188 -34
-33 34 188
-189 -187
-189 -188
187 188 189
-190 33
-190 34
-33 -34 190
-191 186
-191 -189
-186 189 191
-192 -186
-192 189
186 -189 192
-193 -191
-193 -192
191 192 193
-194 -186
-194 -189
186 189 194
-195 -190
-195 -194
190 194 195
-196 -34
-196 35
34 -35 196
-197 34
-197 -35
-34 35 197
-198 -196
-198 -197
196 197 198
-199 34
-199 35
-34 -35 199
-200 195
-200 -198
-195 198 200
-201 -195
-201 198
195 -198 201
-202 -200
-202 -201
200 201 202
-203 -195
-203 -198
195 198 203
-204 -199
-204 -203
199 203 204
-205 -35
-205 36
35 -36 205
-206 35
-206 -36
-35 36 206
-207 -205
-207 -206
205 206 207
-208 35
-208 36
-35 -36 208
-209 204
-209 -207
-204 207 209
-210 -204
-210 207
204 -207 210
-211 -209
-211 -210
209 210 211
-212 -204
-212 -207
204 207 212
-213 -208
-213 -212
208 212 213
-214 -36
-214 37
36 -37 214
-215 36
-215 -37
-36 37 215
-216 -214
-216 -215
214 215 216
-217 36
-217 37
-36 -37 217
-218 213
-218 -216
-213 216 218
-219 -213
-219 216
213 -216 219
-220 -218
-220 -219
218 219 220
-221 -213
-221 -216
213 216 221
-222 -217
-222 -221
217 221 222
-223 -37
-223 38
37 -38 223
-224 37
-224 -38
-37 38 224
-225 -223
-225 -224
223 224 225
-226 37
-226 38
-37 -38 226
-227 222
-227 -225
-222 225 227
-228 -222
-228 225
222 -225 228
-229 -227
-229 -228
227 228 229
-230 -222
-230 -225
222 225 230
-231 -226
-231 -230
226 230 231
-232 -38
-232 39
38 -39 232
-233 38
-233 -39
-38 39 233
-234 -232
-234 -233
232 233 234
-235 38
-235 39
-38 -39 235
-236 231
-236 -234
-231 234 236
-237 -231
-237 234
231 -234 237
-238 -236
-238 -237
236 237 238
-239 -231
-239 -234
231 234 239
-240 -235
-240 -239
235 239 240
-241 -39
-241 40
39 -40 241
-242 39
-242 -40
-39 40 242
-243 -241
-243 -242
241 242 243
-244 39
-244 40
-39 -40 244
-245 240
-245 -243
-240 243 245
-246 -240
-246 243
240 -243 246
-247 -245
-247 -246
245 246 247
-248 -240
-248 -243
240 243 248
-249 -244
-249 -248
244 248 249
-250 -40
-250 41
40 -41 250
-251 40
-251 -41
-40 41 251
-252 -250
-252 -251
250 251 252
-253 40
-253 41
-40 -41 253
-254 249
-254 -252
-249 252 254
-255 -249
-255 252
249 -252 255
-256 -254
-256 -255
254 255 256
-257 -249
-257 -252
249 252 257
-258 -253
-258 -257
253 257 258
-259 -41
-259 42
41 -42 259
-260 41
-260 -42
-41 42 260
-261 -259
-261 -260
259 260 261
-262 41
-262 42
-41 -42 262
-263 258
-263 -261
-258 261 263
-264 -258
-264 261
258 -261 264
-265 -263
-265 -264
263 264 265
-266 -258
-266 -261
258 261 266
-267 -262
-267 -266
262 266 267
-268 -42
-268 43
42 -43 268
-269 42
-269 -43
-42 43 269
-270 -268
-270 -269
268 269 270
-271 42
-271 43
-42 -43 271
-272 267
-272 -270
-267 270 272
-273 -267
-273 270
267 -270 273
-274 -272
-274 -273
272 273 274
-275 -267
-275 -270
267 270 275
-276 -271
-276 -275
271 275 276
-277 -43
-277 44
43 -44 277
-278 43
-278 -44
-43 44 278
-279 -277
-279 -278
277 278 279
-280 43
-280 44
-43 -44 280
-281 276
-281 -279
-276 279 281
-282 -276
-282 279
276 -279 282
-283 -281
-283 -282
281 282 283
-284 -276
-284 -279
276 279 284
-285 -280
-285 -284
280 284 285
-286 -44
-286 45
44 -45 286
-287 44
-287 -45
-44 45 287
-288 -286
-288 -287
286 287 288
-289 44
-289 45
-44 -45 289
-290 285
-290 -288
-285 288 290
-291 -285
-291 288
285 -288 291
-292 -290
-292 -291
290 291 292
-293 -285
-293 -288
285 288 293
-294 -289
-294 -293
289 293 294
-295 -45
-295 46
45 -46 295
-296 45
-296 -46
-45 46 296
-297 -295
-297 -296
295 296 297
-298 45
-298 46
-45 -46 298
-299 294
-299 -297
-294 297 299
-300 -294
-300 297
294 -297 300
-301 -299
-301 -300
299 300 301
-302 -294
-302 -297
294 297 302
-303 -298
-303 -302
298 302 303
-304 -46
-304 47
46 -47 304
-305 46
-305 -47
-46 47 305
-306 -304
-306 -305
304 305 306
-307 46
-307 47
-46 -47 307
-308 303
-308 -306
-303 306 308
-309 -303
-309 306
303 -306 309
-310 -308
-310 -309
308 309 310
-311 -303
-311 -306
303 306 311
-312 -307
-312 -311
307 311 312
-313 -47
-313 48
47 -48 313
-314 47
-314 -48
-47 48 314
-315 -313
-315 -314
313 314 315
-316 47
-316 48
-47 -48 316
-317 312
-317 -315
-312 315 317
-318 -312
-318 315
312 -315 318
-319 -317
-319 -318
317 318 319
-320 -312
-320 -315
312 315 320
-321 -316
-321 -320
316 320 321
-322 -48
-322 49
48 -49 322
-323 48
-323 -49
-48 49 323
-324 -322
-324 -323
322 323 324
-325 48
-325 49
-48 -49 325
-326 321
-326 -324
-321 324 326
-327 -321
-327 324
321 -324 327
-328 -326
-328 -327
326 327 328
-329 -321
-329 -324
321 324 329
-330 -325
-330 -329
325 329 330
-331 -49
-331 50
49 -50 331
-332 49
-332 -50
-49 50 332
-333 -331
-333 -332
331 332 333
-334 49
-334 50
-49 -50 334
-335 330
-335 -333
-330 333 335
-336 -330
-336 333
330 -333 336
-337 -335
-337 -336
335 336 337
-338 -330
-338 -333
330 333 338
-339 -334
-339 -338
334 338 339
-340 -50
-340 51
50 -51 340
-341 50
-341 -51
-50 51 341
-342 -340
-342 -341
340 341 342
-343 50
-343 51
-50 -51 343
-344 339
-344 -342
-339 342 344
-345 -339
-345 342
339 -342 345
-346 -344
-346 -345
344 345 346
-347 -339
-347 -342
339 342 347
-348 -343
-348 -347
343 347 348
-349 -51
-349 52
51 -52 349
-350 51
-350 -52
-51 52 350
-351 -349
-351 -350
349 350 351
-352 51
-352 52
-51 -52 352
-353 348
-353 -351
-348 351 353
-354 -348
-354 351
348 -351 354
-355 -353
-355 -354
353 354 355
-356 -348
-356 -351
348 351 356
-357 -352
-357 -356
352 356 357
-358 -52
-358 53
52 -53 358
-359 52
-359 -53
-52 53 359
-360 -358
-360 -359
358 359 360
-361 52
-361 53
-52 -53 361
-362 357
-362 -360
-357 360 362
-363 -357
-363 360
357 -360 363
-364 -362
-364 -363
362 363 364
-365 -357
-365 -360
357 360 365
-366 -361
-366 -365
361 365 366
-367 -53
-367 54
53 -54 367
-368 53
-368 -54
-53 54 368
-369 -367
-369 -368
367 368 369
-370 53
-370 54
-53 -54 370
-371 366
-371 -369
-366 369 371
-372 -366
-372 369
366 -369 372
-373 -371
-373 -372
371 372 373
-374 -366
-374 -369
366 369 374
-375 -370
-375 -374
370 374 375
-376 -54
-376 55
54 -55 376
-377 54
-377 -55
-54 55 377
-378 -376
-378 -377
376 377 378
-379 54
-379 55
-54 -55 379
-380 375
-380 -378
-375 378 380
-381 -375
-381 378
375 -378 381
-382 -380
-382 -381
380 381 382
-383 -375
-383 -378
375 378 383
-384 -379
-384 -383
379 383 384
-385 -55
-385 56
55 -56 385
-386 55
-386 -56
-55 56 386
-387 -385
-387 -386
385 386 387
-388 55
-388 56
-55 -56 388
-389 384
-389 -387
-384 387 389
-390 -384
-390 387
384 -387 390
-391 -389
-391 -390
389 390 391
-392 -384
-392 -387
384 387 392
-393 -388
-393 -392
388 392 393
-394 -56
-394 57
56 -57 394
-395 56
-395 -57
-56 57 395
-396 -394
-396 -395
394 395 396
-397 56
-397 57
-56 -57 397
-398 393
-398 -396
-393 396 398
-399 -393
-399 396
393 -396 399
-400 -398
-400 -399
398 399 400
-401 -393
-401 -396
393 396 401
-402 -397
-402 -401
397 401 402
-403 -57
-403 58
57 -58 403
-404 57
-404 -58
-57 58 404
-405 -403
-405 -404
403 404 405
-406 57
-406 58
-57 -58 406
-407 402
-407 -405
-402 405 407
-408 -402
-408 405
402 -405 408
-409 -407
-409 -408
407 408 409
-410 -402
-410 -405
402 405 410
-411 -406
-411 -410
406 410 411
-412 -58
-412 59
58 -59 412
-413 58
-413 -59
-58 59 413
-414 -412
-414 -413
412 413 414
-415 58
-415 59
-58 -59 415
-416 411
-416 -414
-411 414 416
-417 -411
-417 414
411 -414 417
-418 -416
-418 -417
416 417 418
-419 -411
-419 -414
411 414 419
-420 -415
-420 -419
415 419 420
-421 -59
-421 60
59 -60 421
-422 59
-422 -60
-59 60 422
-423 -421
-423 -422
421 422 423
-424 59
-424 60
-59 -60 424
-425 420
-425 -423
-420 423 425
-426 -420
-426 423
420 -423 426
-427 -425
-427 -426
425 426 427
-428 -420
-428 -423
420 423 428
-429 -424
-429 -428
424 428 429
-430 -60
-430 61
60 -61 430
-431 60
-431 -61
-60 61 431
-432 -430
-432 -431
430 431 432
-433 60
-433 61
-60 -61 433
-434 429
-434 -432
-429 432 434
-435 -429
-435 432
429 -432 435
-436 -434
-436 -435
434 435 436
-437 -429
-437 -432
429 432 437
-438 -433
-438 -437
433 437 438
-439 -61
-439 62
61 -62 439
-440 61
-440 -62
-61 62 440
-441 -439
-441 -440
439 440 441
-442 61
-442 62
-61 -62 442
-443 438
-443 -441
-438 441 443
-444 -438
-444 441
438 -441 444
-445 -443
-445 -444
443 444 445
-446 -438
-446 -441
438 441 446
-447 -442
-447 -446
442 446 447
-448 -62
-448 63
62 -63 448
-449 62
-449 -63
-62 63 449
-450 -448
-450 -449
448 449 450
-451 62
-451 63
-62 -63 451
-452 447
-452 -450
-447 450 452
-453 -447
-453 450
447 -450 453
-454 -452
-454 -453
452 453 454
-455 -447
-455 -450
447 450 455
-456 -451
-456 -455
451 455 456
-457 -63
-457 64
63 -64 457
-458 63
-458 -64
-63 64 458
-459 -457
-459 -458
457 458 459
-460 63
-460 64
-63 -64 460
-461 456
-461 -459
-456 459 461
-462 -456
-462 459
456 -459 462
-463 -461
-463 -462
461 462 463
-464 -456
-464 -459
456 459 464
-465 -460
-465 -464
460 464 465
-466 -64
-466 65
64 -65 466
-467 64
-467 -65
-64 65 467
-468 -466
-468 -467
466 467 468
-469 64
-469 65
-64 -65 469
-470 465
-470 -468
-465 468 470
-471 -465
-471 468
465 -468 471
-472 -470
-472 -471
470 471 472
-473 -465
-473 -468
465 468 473
-474 -469
-474 -473
469 473 474
-475 -65
-475 66
65 -66 475
-476 65
-476 -66
-65 66 476
-477 -475
-477 -476
475 476 477
-478 65
-478 66
-65 -66 478
-479 474
-479 -477
-474 477 479
-480 -474
-480 477
474 -477 480
-481 -479
-481 -480
479 480 481
-482 -474
-482 -477
474 477 482
-483 -478
-483 -482
478 482 483
-484 -66
-484 67
66 -67 484
-485 66
-485 -67
-66 67 485
-486 -484
-486 -485
484 485 486
-487 66
-487 67
-66 -67 487
-488 483
-488 -486
-483 486 488
-489 -483
-489 486
483 -486 489
-490 -488
-490 -489
488 489 490
-491 -483
-491 -486
483 486 491
-492 -487
-492 -491
487 491 492
-493 -67
-493 68
67 -68 493
-494 67
-494 -68
-67 68 494
-495 -493
-495 -494
493 494 495
-496 67
-496 68
-67 -68 496
-497 492
-497 -495
-492 495 497
-498 -492
-498 495
492 -495 498
-499 -497
-499 -498
497 498 499
-500 -492
-500 -495
492 495 500
-501 -496
-501 -500
496 500 501
-502 -68
-502 69
68 -69 502
-503 68
-503 -69
-68 69 503
-504 -502
-504 -503
502 503 504
-505 68
-505 69
-68 -69 505
-506 501
-506 -504
-501 504 506
-507 -501
-507 504
501 -504 507
-508 -506
-508 -507
506 507 508
-509 -501
-509 -504
501 504 509
-510 -505
-510 -509
505 509 510
-511 -69
-511 70
69 -70 511
-512 69
-512 -70
-69 70 512
-513 -511
-513 -512
511 512 513
-514 69
-514 70
-69 -70 514
-515 510
-515 -513
-510 513 515
-516 -510
-516 513
510 -513 516
-517 -515
-517 -516
515 516 517
-518 -510
-518 -513
510 513 518
-519 -514
-519 -518
514 518 519
-520 25
-520 -121
-25 121 520
-521 -25
-521 27
25 -27 521
-522 -520
-522 -521
520 521 522
-523 25
-523 -130
-25 130 523
-524 -25
-524 28
25 -28 524
-525 -523
-525 -524
523 524 525
-526 25
-526 -139
-25 139 526
-527 -25
-527 29
25 -29 527
-528 -526
-528 -527
526 527 528
-529 25
-529 -148
-25 148 529
-530 -25
-530 30
25 -30 530
-531 -529
-531 -530
529 530 531
-532 25
-532 -157
-25 157 532
-533 -25
-533 31
25 -31 533
-534 -532
-534 -533
532 533 534
-535 25
-535 -166
-25 166 535
-536 -25
-536 32
25 -32 536
-537 -535
-537 -536
535 536 537
-538 25
-538 -175
-25 175 538
-539 -25
-539 33
25 -33 539
-540 -538
-540 -539
538 539 540
-541 25
-541 -184
-25 184 541
-542 -25
-542 34
25 -34 542
-543 -541
-543 -542
541 542 543
-544 25
-544 -193
-25 193 544
-545 -25
-545 35
25 -35 545
-546 -544
-546 -545
544 545 546
-547 25
-547 -202
-25 202 547
-548 -25
-548 36
25 -36 548
-549 -547
-549 -548
547 548 549
-550 25
-550 -211
-25 211 550
-551 -25
-551 37
25 -37 551
-552 -550
-552 -551
550 551 552
-553 25
-553 -220
-25 220 553
-554 -25
-554 38
25 -38 554
-555 -553
-555 -554
553 554 555
-556 25
-556 -229
-25 229 556
-557 -25
-557 39
25 -39 557
-558 -556
-558 -557
556 557 558
-559 25
-559 -238
-25 238 559
-560 -25
-560 40
25 -40 560
-561 -559
-561 -560
559 560 561
-562 25
-562 -247
-25 247 562
-563 -25
-563 41
25 -41 563
-564 -562
-564 -563
562 563 564
-565 25
-565 -256
-25 256 565
-566 -25
-566 42
25 -42 566
-567 -565
-567 -566
565 566 567
-568 25
-568 -265
-25 265 568
-569 -25
-569 43
25 -43 569
-570 -568
-570 -569
568 569 570
-571 25
-571 -274
-25 274 571
-572 -25
-572 44
25 -44 572
-573 -571
-573 -572
571 572 573
-574 25
-574 -283
-25 283 574
-575 -25
-575 45
25 -45 575
-576 -574
-576 -575
574 575 576
-577 25
-577 -292
-25 292 577
-578 -25
-578 46
25 -46 578
-579 -577
-579 -578
577 578 579
-580 25
-580 -301
-25 301 580
-581 -25
-581 47
25 -47 581
-582 -580
-582 -581
580 581 582
-583 25
-583 -310
-25 310 583
-584 -25
-584 48
25 -48 584
-585 -583
-585 -584
583 584 585
-586 25
-586 -319
-25 319 586
-587 -25
-587 49
25 -49 587
-588 -586
-588 -587
586 587 588
-589 25
-589 -328
-25 328 589
-590 -25
-590 50
25 -50 590
-591 -589
-591 -590
589 590 591
-592 25
-592 -337
-25 337 592
-593 -25
-593 51
25 -51 593
-594 -592
-594 -593
592 593 594
-595 25
-595 -346
-25 346 595
-596 -25
-596 52
25 -52 596
-597 -595
-597 -596
595 596 597
-598 25
-598 -355
-25 355 598
-599 -25
-599 53
25 -53 599
-600 -598
-600 -599
598 599 600
-601 25
-601 -364
-25 364 601
-602 -25
-602 54
25 -54 602
-603 -601
-603 -602
601 602 603
-604 25
-604 -373
-25 373 604
-605 -25
-605 55
25 -55 605
-606 -604
-606 -605
604 605 606
-607 25
-607 -382
-25 382 607
-608 -25
-608 56
25 -56 608
-609 -607
-609 -608
607 608 609
-610 25
-610 -391
-25 391 610
-611 -25
-611 57
25 -57 611
-612 -610
-612 -611
610 611 612
-613 25
-613 -400
-25 400 613
-614 -25
-614 58
25 -58 614
-615 -613
-615 -614
613 614 615
-616 25
-616 -409
-25 409 616
-617 -25
-617 59
25 -59 617
-618 -616
-618 -617
616 617 618
-619 25
-619 -418
-25 418 619
-620 -25
-620 60
25 -60 620
-621 -619
-621 -620
619 620 621
-622 25
-622 -427
-25 427 622
-623 -25
-623 61
25 -61 623
-624 -622
-624 -623
622 623 624
-625 25
-625 -436
-25 436 625
-626 -25
-626 62
25 -62 626
-627 -625
-627 -626
625 626 627
-628 25
-628 -445
-25 445 628
-629 -25
-629 63
25 -63 629
-630 -628
-630 -629
628 629 630
-631 25
-631 -454
-25 454 631
-632 -25
-632 64
25 -64 632
-633 -631
-633 -632
631 632 633
-634 25
-634 -463
-25 463 634
-635 -25
-635 65
25 -65 635
-636 -634
-636 -635
634 635 636
-637 25
-637 -472
-25 472 637
-638 -25
-638 66
25 -66 638
-639 -637
-639 -638
637 638 639
-640 25
-640 -481
-25 481 640
-641 -25
-641 67
25 -67 641
-642 -640
-642 -641
640 641 642
-643 25
-643 -490
-25 490 643
-644 -25
-644 68
25 -68 644
-645 -643
-645 -644
643 644 645
-646 25
-646 -499
-25 499 646
-647 -25
-647 69
25 -69 647
-648 -646
-648 -647
646 647 648
-649 25
-649 -508
-25 508 649
-650 -25
-650 70
25 -70 650
-651 -649
-651 -650
649 650 651
-652 25
-652 -517
-25 517 652
-653 1
-653 114
-1 -114 653
-654 -114
-654 115
114 -115 654
-655 -653
-655 -654
653 654 655
-656 2
-656 114
-2 -114 656
-657 -114
-657 -522
114 522 657
-658 -656
-658 -657
656 657 658
-659 3
-659 114
-3 -114 659
-660 -114
-660 -525
114 525 660
-661 -659
-661 -660
659 660 661
-662 4
-662 114
-4 -114 662
-663 -114
-663 -528
114 528 663
-664 -662
-664 -663
662 663 664
-665 5
-665 114
-5 -114 665
-666 -114
-666 -531
114 531 666
-667 -665
-667 -666
665 666 667
-668 6
-668 114
-6 -114 668
-669 -114
-669 -534
114 534 669
-670 -668
-670 -669
668 669 670
-671 7
-671 114
-7 -114 671
-672 -114
-672 -537
114 537 672
-673 -671
-673 -672
671 672 673
-674 8
-674 114
-8 -114 674
-675 -114
-675 -540
114 540 675
-676 -674
-676 -675
674 675 676
-677 9
-677 114
-9 -114 677
-678 -114
-678 -543
114 543 678
-679 -677
-679 -678
677 678 679
-680 10
-680 114
-10 -114 680
-681 -114
-681 -546
114 546 681
-682 -680
-682 -681
680 681 682
-683 11
-683 114
-11 -114 683
-684 -114
-684 -549
114 549 684
-685 -683
-685 -684
683 684 685
-686 12
-686 114
-12 -114 686
-687 -114
-687 -552
114 552 687
-688 -686
-688 -687
686 687 688
-689 13
-689 114
-13 -114 689
-690 -114
-690 -555
114 555 690
-691 -689
-691 -690
689 690 691
-692 14
-692 114
-14 -114 692
-693 -114
-693 -558
114 558 693
-694 -692
-694 -693
692 693 694
-695 15
-695 114
-15 -114 695
-696 -114
-696 -561
114 561 696
-697 -695
-697 -696
695 696 697
-698 16
-698 114
-16 -114 698
-699 -114
-699 -564
114 564 699
-700 -698
-700 -699
698 699 700
-701 17
-701 114
-17 -114 701
-702 -114
-702 -567
114 567 702
-703 -701
-703 -702
701 702 703
-704 18
-704 114
-18 -114 704
-705 -114
-705 -570
114 570 705
-706 -704
-706 -705
704 705 706
-707 19
-707 114
-19 -114 707
-708 -114
-708 -573
114 573 708
-709 -707
-709 -708
707 708 709
-710 20
-710 114
-20 -114 710
-711 -114
-711 -576
114 576 711
-712 -710
-712 -711
710 711 712
-713 21
-713 114
-21 -114 713
-714 -114
-714 -579
114 579 714
-715 -713
-715 -714
713 714 715
-716 22
-716 114
-22 -114 716
-717 -114
-717 -582
114 582 717
-718 -716
-718 -717
716 717 718
-719 23
-719 114
-23 -114 719
-720 -114
-720 -585
114 585 720
-721 -719
-721 -720
719 720 721
-722 24
-722 114
-24 -114 722
-723 -114
-723 -588
114 588 723
-724 -722
-724 -723
722 723 724
-725 -114
-725 -591
114 591 725
-726 -114
-726 -594
114 594 726
-727 -114
-727 -597
114 597 727
-728 -114
-728 -600
114 600 728
-729 -114
-729 -603
114 603 729
-730 -114
-730 -606
114 606 730
-731 -114
-731 -609
114 609 731
-732 -114
-732 -612
114 612 732
-733 -114
-733 -615
114 615 733
-734 -114
-734 -618
114 618 734
-735 -114
-735 -621
114 621 735
-736 -114
-736 -624
114 624 736
-737 -114
-737 -627
114 627 737
-738 -114
-738 -630
114 630 738
-739 -114
-739 -633
114 633 739
-740 -114
-740 -636
114 636 740
-741 -114
-741 -639
114 639 741
-742 -114
-742 -642
114 642 742
-743 -114
-743 -645
114 645 743
-744 -114
-744 -648
114 648 744
-745 -114
-745 -651
114 651 745
-746 -114
-746 652
114 -652 746
-747 -70
-747 519
70 -519 747
-748 25
-748 -747
-25 747 748
748
